(set-info :smt-lib-version 2.6)
(set-logic QF_ABVFPLRA)
(set-info :source "|
Generated by the tool Ultimate Automizer [1,2] which implements
an automata theoretic approach [3] to software verification.

This SMT script belongs to a set of SMT scripts that was generated by
applying Ultimate Automizer to benchmarks [4] from the SV-COMP 2019 [5,6].
This script might _not_ contain all SMT commands that are used by
Ultimate Automizer. In order to satisfy the restrictions of
the SMT-COMP we have to drop e.g., the commands for getting
values (resp. models), unsatisfiable cores and interpolants.

2019-04-27, Matthias Heizmann (heizmann@informatik.uni-freiburg.de)

[1] https://ultimate.informatik.uni-freiburg.de/automizer/
[2] Matthias Heizmann, Yu-Fang Chen, Daniel Dietsch, Marius Greitschus,
     Jochen Hoenicke, Yong Li, Alexander Nutz, Betim Musa, Christian
     Schilling, Tanja Schindler, Andreas Podelski: Ultimate Automizer
     and the Search for Perfect Interpolants - (Competition Contribution).
     TACAS (2) 2018: 447-451
[3] Matthias Heizmann, Jochen Hoenicke, Andreas Podelski: Software Model
     Checking for People Who Love Automata. CAV 2013:36-52
[4] https://github.com/sosy-lab/sv-benchmarks
[5] Dirk Beyer: Automatic Verification of C and Java Programs: SV-COMP 2019.
     TACAS (3) 2019: 133-155
[6] https://sv-comp.sosy-lab.org/2019/
|")
(set-info :license "https://creativecommons.org/licenses/by/4.0/")
(set-info :category "industrial")
(set-info :status unknown)
(declare-fun v_currentRoundingMode_49_const_1497110762 () RoundingMode)
(declare-fun v_~two24_krempio~0_4_const_-1982342308 () (_ FloatingPoint 11 53))
(declare-fun v___kernel_rem_pio2_~fw~0_23_const_1780238832 () (_ FloatingPoint 11 53))
(declare-fun v___kernel_rem_pio2_~z~0_11_const_-1949942504 () (_ FloatingPoint 11 53))
(declare-fun |v_#memory_int_208_const_-1195906573| () (Array (_ BitVec 32) (Array (_ BitVec 32) (_ BitVec 32))))
(declare-fun |v___kernel_rem_pio2_~#iq~0.base_6_const_25982121| () (_ BitVec 32))
(declare-fun |v___kernel_rem_pio2_~#iq~0.offset_6_const_1805447151| () (_ BitVec 32))
(declare-fun v___kernel_rem_pio2_~i~1_40_const_689356291 () (_ BitVec 32))
(declare-fun |v_#memory_int_207_const_-1195906576| () (Array (_ BitVec 32) (Array (_ BitVec 32) (_ BitVec 32))))
(declare-fun v_~twon24_krempio~0_4_const_-1302560068 () (_ FloatingPoint 11 53))
(declare-fun |v___kernel_rem_pio2_~#q~0.base_7_const_480477957| () (_ BitVec 32))
(declare-fun v___kernel_rem_pio2_~j~1_20_const_725850018 () (_ BitVec 32))
(declare-fun |v___kernel_rem_pio2_~#q~0.offset_7_const_-207658757| () (_ BitVec 32))
(declare-fun v___kernel_rem_pio2_~z~0_10_const_-1949942497 () (_ FloatingPoint 11 53))
(assert (and (= v___kernel_rem_pio2_~fw~0_23_const_1780238832 ((_ to_fp 11 53) v_currentRoundingMode_49_const_1497110762 ((_ fp.to_sbv 32) roundTowardZero (fp.mul v_currentRoundingMode_49_const_1497110762 v_~twon24_krempio~0_4_const_-1302560068 v___kernel_rem_pio2_~z~0_11_const_-1949942504)))) (= v___kernel_rem_pio2_~z~0_10_const_-1949942497 (fp.add v_currentRoundingMode_49_const_1497110762 (let ((.cse0 (let ((.cse1 (select |v_#memory_int_207_const_-1195906576| |v___kernel_rem_pio2_~#q~0.base_7_const_480477957|)) (.cse2 (bvmul (_ bv8 32) v___kernel_rem_pio2_~j~1_20_const_725850018))) (concat (select .cse1 (bvadd .cse2 |v___kernel_rem_pio2_~#q~0.offset_7_const_-207658757| (_ bv4294967292 32))) (select .cse1 (bvadd .cse2 |v___kernel_rem_pio2_~#q~0.offset_7_const_-207658757| (_ bv4294967288 32))))))) (fp ((_ extract 63 63) .cse0) ((_ extract 62 52) .cse0) ((_ extract 51 0) .cse0))) v___kernel_rem_pio2_~fw~0_23_const_1780238832)) (bvsgt v___kernel_rem_pio2_~j~1_20_const_725850018 (_ bv0 32)) (= |v_#memory_int_207_const_-1195906576| (store |v_#memory_int_208_const_-1195906573| |v___kernel_rem_pio2_~#iq~0.base_6_const_25982121| (store (select |v_#memory_int_208_const_-1195906573| |v___kernel_rem_pio2_~#iq~0.base_6_const_25982121|) (bvadd |v___kernel_rem_pio2_~#iq~0.offset_6_const_1805447151| (bvmul (_ bv4 32) v___kernel_rem_pio2_~i~1_40_const_689356291)) ((_ fp.to_sbv 32) roundTowardZero (fp.sub v_currentRoundingMode_49_const_1497110762 v___kernel_rem_pio2_~z~0_11_const_-1949942504 (fp.mul v_currentRoundingMode_49_const_1497110762 v_~two24_krempio~0_4_const_-1982342308 v___kernel_rem_pio2_~fw~0_23_const_1780238832))))))))
(check-sat)
(exit)
